problems/csplib-prob013/ProgressivePartyProblem-models/noch/O2/lingeling/model_4_1-Ian04-solution000001.eprime-solution
language ESSENCE' 1.0

letting aux1_Occurrence be
        [[false, false, true, true, true, true, true, true; int(1..8)],
         [false, false, true, true, true, true, true, true; int(1..8)],
         [false, false, true, true, true, true, true, true; int(1..8)],
         [false, false, true, true, true, true, true, true; int(1..8)],
         [false, false, true, true, true, true, true, true; int(1..8)],
         [false, false, true, true, true, true, true, true; int(1..8)]; int(1..6)]
letting hosts_ExplicitVarSizeWithFlags_Flags be [true, true, true, true, true, true, false, false; int(1..8)]
letting hosts_ExplicitVarSizeWithFlags_Values be [3, 4, 5, 6, 7, 8, 1, 1; int(1..8)]
letting sched_ExplicitR9_Function1D be
        [[3, 4, 3, 4, 5, 6, 7, 8; int(1..8)], [4, 6, 3, 4, 5, 6, 7, 8; int(1..8)], [5, 7, 3, 4, 5, 6, 7, 8; int(1..8)],
         [6, 5, 3, 4, 5, 6, 7, 8; int(1..8)], [7, 3, 3, 4, 5, 6, 7, 8; int(1..8)],
         [8, 8, 3, 4, 5, 6, 7, 8; int(1..8)]; int(1..6)]
